<number of tasks>
29

<cycle time>
33

<task times>
1 7
2 19
3 15
4 5
5 12
6 10
7 8
8 16
9 2
10 6
11 21
12 10
13 9
14 4
15 14
16 7
17 14
18 17
19 10
20 16
21 1
22 9
23 25
24 14
25 14
26 2
27 10
28 7
29 20

<precedence relations>
1,3
1,25
2,6
2,26
3,4
4,5
5,8
5,13
6,8
7,9
7,12
7,25
8,11
8,16
9,10
10,14
10,15
11,17
12,15
13,17
14,16
15,19
16,18
17,20
18,22
19,21
20,23
21,22
22,23
23,24
23,28
24,29
25,29
26,27
27,29
28,29

<setup times forward>
1,3:1
1,14:1
1,21:1
1,26:1
1,27:1
2,3:1
2,4:1
2,5:1
2,14:1
2,21:1
2,26:1
3,2:1
3,6:1
3,7:1
3,9:1
3,10:1
3,12:1
3,15:1
3,19:1
3,25:1
4,2:1
4,6:1
4,7:1
4,9:1
4,10:1
4,12:1
4,15:1
4,19:1
4,25:1
5,2:1
5,6:1
5,7:1
5,8:1
5,9:1
5,10:1
5,12:1
5,13:1
5,15:1
5,19:1
5,25:1
6,3:1
6,4:1
6,5:1
6,14:1
6,21:1
6,26:1
6,27:1
7,3:1
7,4:1
7,5:1
7,11:1
7,20:1
7,26:1
7,27:1
8,11:1
8,14:1
8,16:1
8,21:1
8,26:1
8,27:1
9,3:1
9,4:1
9,5:1
9,11:1
9,20:1
9,26:1
9,27:1
10,3:1
10,4:1
10,5:1
10,11:1
10,14:1
10,20:1
10,26:1
10,27:1
11,7:1
11,9:1
11,10:1
11,12:1
11,13:1
11,15:1
11,17:1
11,18:1
11,19:1
11,25:1
12,3:1
12,4:1
12,5:1
12,11:1
12,14:1
12,16:1
12,20:1
12,26:1
12,27:1
13,11:1
13,14:1
13,16:1
13,21:1
13,22:1
13,26:1
13,27:1
14,1:1
14,2:1
14,6:1
14,8:1
14,12:1
14,13:1
14,15:1
14,17:1
14,19:1
14,25:1
15,3:1
15,4:1
15,5:1
15,11:1
15,14:1
15,16:1
15,20:1
15,26:1
15,27:1
16,12:1
16,13:1
16,15:1
16,17:1
16,18:1
16,19:1
16,25:1
17,14:1
17,16:1
17,20:1
17,21:1
17,22:1
17,26:1
17,27:1
18,11:1
18,20:1
18,21:1
18,22:1
18,26:1
18,27:1
19,3:1
19,4:1
19,5:1
19,11:1
19,14:1
19,16:1
19,20:1
19,21:1
19,26:1
19,27:1
20,7:1
20,9:1
20,10:1
20,12:1
20,15:1
20,18:1
20,19:1
20,23:1
20,25:1
21,1:1
21,2:1
21,6:1
21,8:1
21,13:1
21,17:1
21,18:1
21,25:1
22,13:1
22,17:1
22,23:1
22,25:1
23,24:1
23,26:1
23,27:1
23,28:1
24,25:1
25,3:1
25,4:1
25,5:1
25,11:1
25,14:1
25,16:1
25,20:1
25,21:1
25,22:1
25,24:1
25,26:1
25,27:1
25,28:1
25,29:1
26,1:1
26,6:1
26,7:1
26,8:1
26,9:1
26,10:1
26,12:1
26,13:1
26,15:1
26,17:1
26,18:1
26,19:1
26,23:1
26,25:1
27,1:1
27,6:1
27,7:1
27,8:1
27,9:1
27,10:1
27,12:1
27,13:1
27,15:1
27,17:1
27,18:1
27,19:1
27,23:1
27,25:1
28,25:1

<setup times backward>
1,14:1
1,21:1
1,26:1
1,27:1
2,3:1
2,4:1
2,5:1
2,14:1
2,21:1
6,3:1
6,4:1
6,5:1
6,14:1
6,21:1
6,26:1
6,27:1
7,3:1
7,4:1
7,5:1
7,11:1
7,20:1
7,26:1
7,27:1
8,3:1
8,4:1
8,5:1
8,14:1
8,21:1
8,26:1
8,27:1
9,3:1
9,4:1
9,5:1
9,11:1
9,20:1
9,26:1
9,27:1
10,3:1
10,4:1
10,5:1
10,11:1
10,20:1
10,26:1
10,27:1
12,3:1
12,4:1
12,5:1
12,11:1
12,14:1
12,16:1
12,20:1
12,26:1
12,27:1
13,3:1
13,4:1
13,5:1
13,11:1
13,14:1
13,16:1
13,21:1
13,22:1
13,26:1
13,27:1
15,3:1
15,4:1
15,5:1
15,11:1
15,14:1
15,16:1
15,20:1
15,26:1
15,27:1
17,3:1
17,4:1
17,5:1
17,11:1
17,14:1
17,16:1
17,21:1
17,22:1
17,26:1
17,27:1
18,3:1
18,4:1
18,5:1
18,11:1
18,14:1
18,16:1
18,20:1
18,21:1
18,26:1
18,27:1
19,3:1
19,4:1
19,5:1
19,11:1
19,14:1
19,16:1
19,20:1
19,26:1
19,27:1
23,3:1
23,4:1
23,5:1
23,11:1
23,14:1
23,16:1
23,20:1
23,21:1
23,22:1
23,26:1
23,27:1
25,3:1
25,4:1
25,5:1
25,11:1
25,14:1
25,16:1
25,20:1
25,21:1
25,22:1
25,24:1
25,26:1
25,27:1
25,28:1

<end>

<optimal SALBP-1 value>
11


<rand seed>
467321153

